4454790525053687956504,2,1,2,01,6,1,2,015,15,1,2,05,11,1,2,011,7,1,2,04,14,1,2,015,4,1,2,09,6,1,2,06,8,1,2,012,6,1,2,01,2,1,2,07,11,1,2,010,15,1,2,09,2,1,2,09,2,1,2,02,10,1,2,013,10,1,2,013,12,1,2,07,11,1,2,011,1,1,2,04,7,1,2,013,3,1,2,02,5,1,2,011,3,1,2,05,15,1,2,03,3,1,2,08,10,1,2,013,10,1,2,01,5,1,2,07,13,1,2,013,14,1,2,011,8,1,2,07,14,1,2,013,13,1,2,09,8,1,2,04,6,1,2,03,6,1,2,010,6,1,2,09,13,1,2,07,6,1,2,03,12,1,2,08,11,1,2,011,3,1,2,013,8,1,2,07,5,1,2,03,6,1,2,09,3,1,2,012,9,1,2,05,9,1,2,013,7,1,2,0